c FILE			: 5_20.txt
c No. of vertices	: 5
c No. of directed edges	: 20
c Max. weight		: 100
c Min. weight		: 0
c A directed arc from u to v of weight w
c is represented below as ' a  u  v  w '
p sp 5 20
a 1 2 21
a 1 3 55
a 1 4 30
a 1 5 20
a 2 1 68
a 2 3 84
a 2 4 84
a 2 5 2
a 3 1 14
a 3 2 78
a 3 4 65
a 3 5 58
a 4 1 28
a 4 2 92
a 4 3 93
a 4 5 25
a 5 1 46
a 5 2 34
a 5 3 49
a 5 4 12
